Problem:    
Rows:       68
Columns:    29 (20 integer, 20 binary)
Non-zeros:  206
Status:     INTEGER OPTIMAL
Objective:  value = 11.975644 (MINimum)

   No.   Row name        Activity     Lower bound   Upper bound
------ ------------    ------------- ------------- -------------
     1 r.5                   11.9756             0               
     2 r.6                   11.9756      -938.026               
     3 r.7                   1011.98             0               
     4 r.8                  -988.024      -989.405               
     5 r.9                   1011.98             0               
     6 r.10                 -988.024      -999.642               
     7 r.11                  11.9756             0               
     8 r.12                  11.9756      -998.782               
     9 r.13                  1011.98             0               
    10 r.14                 -988.382      -988.446               
    11 r.15                  11.9756             0               
    12 r.16                  11.9756       -997.26               
    13 r.17                  1011.98             0               
    14 r.18                 -999.937      -999.937               
    15 r.19                  11.9756             0               
    16 r.20                 0.063444      -998.766               
    17 r.21                        1             1             = 
    18 r.22                        1             1             = 
    19 r.23                        1             1             = 
    20 r.24                        1             1             = 
    21 r.25                     1001             2               
    22 r.26                    -1001         -1001               
    23 r.27                     2000      -999.642               
    24 r.28                     1001             2               
    25 r.29                    -1001         -1001               
    26 r.30                     2000      -998.782               
    27 r.31                     1001             2               
    28 r.32                    -1001         -1001               
    29 r.33                  1999.64      -988.446               
    30 r.34                     1001             2               
    31 r.35                    -1001         -1001               
    32 r.36                     2000       -997.26               
    33 r.37                  11.9122      -938.026               
    34 r.38                 -988.088      -989.405               
    35 r.39                  11.9122      -938.026               
    36 r.40                 -988.088      -989.405               
    37 r.41                     1001             2               
    38 r.42                    -1001         -1001               
    39 r.43                     2000       61.9737               
    40 r.44                     1001             2               
    41 r.45                    -1001         -1001               
    42 r.46                     2000       10.5951               
    43 r.47                        2             2               
    44 r.48                       -2         -1001               
    45 r.49                   -0.358      -988.446               
    46 r.50                     1000             2               
    47 r.51                    -1000         -1001               
    48 r.52                     2000       -997.26               
    49 r.53                 -988.088      -999.642               
    50 r.54                  11.9122      -998.782               
    51 r.55                 -988.088      -999.642               
    52 r.56                  11.9122      -998.782               
    53 r.57                     1001             2               
    54 r.58                    -1001         -1001               
    55 r.59                  2000.36       61.9737               
    56 r.60                     1001             2               
    57 r.61                    -1001         -1001               
    58 r.62                     2000       10.5951               
    59 r.63                        2             2               
    60 r.64                       -2         -1001               
    61 r.65                    0.358         0.358               
    62 r.66                     1000             2               
    63 r.67                    -1000         -1001               
    64 r.68                     2000        1.2179               
    65 r.69                 -988.446      -988.446               
    66 r.70                  11.9122       -997.26               
    67 r.71                 -988.446      -988.446               
    68 r.72                  11.9122       -997.26               

   No. Column name       Activity     Lower bound   Upper bound
------ ------------    ------------- ------------- -------------
     1 tt                    11.9756             0               
     2 s_1_1        *              0             0             1 
     3 t_1_1                       0             0               
     4 s_2_1        *              1             0             1 
     5 t_2_1                       0             0               
     6 s_1_2        *              1             0             1 
     7 t_1_2                       0             0               
     8 s_2_2        *              0             0             1 
     9 t_2_2                       0             0               
    10 s_1_3        *              1             0             1 
    11 t_1_3                   0.358             0               
    12 s_2_3        *              0             0             1 
    13 t_2_3                       0             0               
    14 s_1_4        *              1             0             1 
    15 t_1_4                 11.9122             0               
    16 s_2_4        *              0             0             1 
    17 t_2_4                 11.9122             0               
    18 r_1_1_2      *              1             0             1 
    19 u_1_1_2      *              0             0             1 
    20 r_2_1_2      *              1             0             1 
    21 u_2_1_2      *              0             0             1 
    22 r_1_1_3      *              1             0             1 
    23 u_1_1_3      *              0             0             1 
    24 r_2_1_3      *              1             0             1 
    25 u_2_1_3      *              0             0             1 
    26 r_1_2_3      *              0             0             1 
    27 u_1_2_3      *              0             0             1 
    28 r_2_2_3      *              1             0             1 
    29 u_2_2_3      *              0             0             1 

Integer feasibility conditions:

KKT.PE: max.abs.err = 0.00e+00 on row 0
        max.rel.err = 0.00e+00 on row 0
        High quality

KKT.PB: max.abs.err = 0.00e+00 on row 0
        max.rel.err = 0.00e+00 on row 0
        High quality

End of output
